bad_dk.lp
\ Model primal
\ LP format - for model browsing. Use MPS format to capture full model detail.
Maximize
  C28 + C29 + C30 + C31 + C32 + C33 + C34 + C35 + C36 + C37 + C38 + C39
   + 90 C40 + 90 C41 + C42 + C43 + C44 + C45 + C46 + C47 + C48 + C49 + C50
   + C51 + 90 C52 + 90 C53 + 10 C54 + 10 C55
Subject To
 A[0,0]: - C1 + C29 - C56 <= 0
 A[0,1]: C0 + C28 - C57 <= 0
 A[1,0]: - C3 + C31 - C56 <= 0
 A[1,1]: C2 + C30 - C57 <= 0
 A[2,0]: - C5 + C33 - C56 <= 0
 A[2,1]: C4 + C32 - C57 <= 0
 A[3,0]: - C7 + C35 - C56 <= 0
 A[3,1]: C6 + C34 - C57 <= 0
 A[4,0]: - C9 + C37 - C56 <= 0
 A[4,1]: C8 + C36 - C57 <= 0
 A[5,0]: - C11 + C39 - C56 <= 0
 A[5,1]: C10 + C38 - C57 <= 0
 A[6,0]: - C13 + C41 - C56 <= 0
 A[6,1]: C12 + C40 - C57 <= 0
 A[7,0]: 3 C15 + C43 - C56 <= 0
 A[7,1]: - 3 C14 + C42 - C57 <= 0
 A[8,0]: 3 C17 + C45 - C56 <= 0
 A[8,1]: - 3 C16 + C44 - C57 <= 0
 A[9,0]: 3 C19 + C47 - C56 <= 0
 A[9,1]: - 3 C18 + C46 - C57 <= 0
 A[10,0]: C21 + C49 - C56 <= 0
 A[10,1]: - C20 + C48 - C57 <= 0
 A[11,0]: 3 C23 + C51 - C56 <= 0
 A[11,1]: - 3 C22 + C50 - C57 <= 0
 A[12,0]: 3 C25 + C53 - C56 <= 0
 A[12,1]: - 3 C24 + C52 - C57 <= 0
 A[13,0]: C27 + C55 - C56 <= 0
 A[13,1]: - C26 + C54 - C57 <= 0
 B[0,0]: 101 C0 - C28 + C56 <= 101
 B[0,1]: 100 C1 - C29 + C57 <= 100
 B[1,0]: 101 C2 - C30 + C56 <= 101
 B[1,1]: 100 C3 - C31 + C57 <= 100
 B[2,0]: 101 C4 - C32 + C56 <= 101
 B[2,1]: 100 C5 - C33 + C57 <= 100
 B[3,0]: 101 C6 - C34 + C56 <= 101
 B[3,1]: 100 C7 - C35 + C57 <= 100
 B[4,0]: 101 C8 - C36 + C56 <= 101
 B[4,1]: 100 C9 - C37 + C57 <= 100
 B[5,0]: 101 C10 - C38 + C56 <= 101
 B[5,1]: 100 C11 - C39 + C57 <= 100
 B[6,0]: 101 C12 - C40 + C56 <= 101
 B[6,1]: 100 C13 - C41 + C57 <= 100
 B[7,0]: 101 C14 - C42 + C56 <= 101
 B[7,1]: 100 C15 - C43 + C57 <= 100
 B[8,0]: 101 C16 - C44 + C56 <= 101
 B[8,1]: 100 C17 - C45 + C57 <= 100
 B[9,0]: 101 C18 - C46 + C56 <= 101
 B[9,1]: 100 C19 - C47 + C57 <= 100
 B[10,0]: 101 C20 - C48 + C56 <= 101
 B[10,1]: 100 C21 - C49 + C57 <= 100
 B[11,0]: 101 C22 - C50 + C56 <= 101
 B[11,1]: 100 C23 - C51 + C57 <= 100
 B[12,0]: 101 C24 - C52 + C56 <= 101
 B[12,1]: 100 C25 - C53 + C57 <= 100
 B[13,0]: 101 C26 - C54 + C56 <= 101
 B[13,1]: 100 C27 - C55 + C57 <= 100
 C[0]: C0 + C1 <= 1
 C[1]: C2 + C3 <= 1
 C[2]: C4 + C5 <= 1
 C[3]: C6 + C7 <= 1
 C[4]: C8 + C9 <= 1
 C[5]: C10 + C11 <= 1
 C[6]: C12 + C13 <= 1
 C[7]: C14 + C15 <= 1
 C[8]: C16 + C17 <= 1
 C[9]: C18 + C19 <= 1
 C[10]: C20 + C21 <= 1
 C[11]: C22 + C23 <= 1
 C[12]: C24 + C25 <= 1
 C[13]: C26 + C27 <= 1
 D[0,0]: C28 <= 0
 D[0,1]: - C1 + C29 <= 0
 D[1,0]: - C2 + C30 <= 0
 D[1,1]: - 2 C3 + C31 <= 0
 D[2,0]: - 4 C4 + C32 <= 0
 D[2,1]: - 5 C5 + C33 <= 0
 D[3,0]: - 9 C6 + C34 <= 0
 D[3,1]: - 10 C7 + C35 <= 0
 D[4,0]: - 8 C8 + C36 <= 0
 D[4,1]: - 9 C9 + C37 <= 0
 D[5,0]: - 17 C10 + C38 <= 0
 D[5,1]: - 18 C11 + C39 <= 0
 D[6,0]: - 12 C12 + C40 <= 0
 D[6,1]: - 13 C13 + C41 <= 0
 D[7,0]: - 5 C14 + C42 <= 0
 D[7,1]: - 2 C15 + C43 <= 0
 D[8,0]: - 10 C16 + C44 <= 0
 D[8,1]: - 7 C17 + C45 <= 0
 D[9,0]: - 9 C18 + C46 <= 0
 D[9,1]: - 6 C19 + C47 <= 0
 D[10,0]: - 18 C20 + C48 <= 0
 D[10,1]: - 17 C21 + C49 <= 0
 D[11,0]: - 13 C22 + C50 <= 0
 D[11,1]: - 10 C23 + C51 <= 0
 D[12,0]: - 26 C24 + C52 <= 0
 D[12,1]: - 23 C25 + C53 <= 0
 D[13,0]: - 101 C26 + C54 <= 0
 D[13,1]: - 100 C27 + C55 <= 0
 E[0,0]: C28 - C56 <= 0
 E[0,1]: C29 - C57 <= 0
 E[1,0]: C30 - C56 <= 0
 E[1,1]: C31 - C57 <= 0
 E[2,0]: C32 - C56 <= 0
 E[2,1]: C33 - C57 <= 0
 E[3,0]: C34 - C56 <= 0
 E[3,1]: C35 - C57 <= 0
 E[4,0]: C36 - C56 <= 0
 E[4,1]: C37 - C57 <= 0
 E[5,0]: C38 - C56 <= 0
 E[5,1]: C39 - C57 <= 0
 E[6,0]: C40 - C56 <= 0
 E[6,1]: C41 - C57 <= 0
 E[7,0]: C42 - C56 <= 0
 E[7,1]: C43 - C57 <= 0
 E[8,0]: C44 - C56 <= 0
 E[8,1]: C45 - C57 <= 0
 E[9,0]: C46 - C56 <= 0
 E[9,1]: C47 - C57 <= 0
 E[10,0]: C48 - C56 <= 0
 E[10,1]: C49 - C57 <= 0
 E[11,0]: C50 - C56 <= 0
 E[11,1]: C51 - C57 <= 0
 E[12,0]: C52 - C56 <= 0
 E[12,1]: C53 - C57 <= 0
 E[13,0]: C54 - C56 <= 0
 E[13,1]: C55 - C57 <= 0
Bounds
End
