bad_dk.sol
# Solution for model primal
# Objective value = 4.4800001944490587e+03
C0 0
C1 5.0505050505050508e-01
C2 4.8979591836734693e-01
C3 5.1020408163265307e-01
C4 4.7368421052631582e-01
C5 5.2631578947368418e-01
C6 4.4444444444444442e-01
C7 5.5555555555555558e-01
C8 4.5054945054945050e-01
C9 5.4945054945054950e-01
C10 3.9024390243902440e-01
C11 6.0975609756097560e-01
C12 4.2528735632183912e-01
C13 5.7471264367816088e-01
C14 5.2604166666666685e-01
C15 4.7395833333333315e-01
C16 5.5494505494505508e-01
C17 4.4505494505494492e-01
C18 0.548913043478261
C19 0.451086956521739
C20 6.0843373493975916e-01
C21 3.9156626506024084e-01
C22 5.7386363636363658e-01
C23 4.2613636363636342e-01
C24 6.7333333333333356e-01
C25 3.2666666666666644e-01
C26 4.9999999999999989e-01
C27 5.0000000000000011e-01
C28 0
C29 5.0505050505050508e-01
C30 4.8979591836734693e-01
C31 1.0204081632653061e+00
C32 1.8947368421052633e+00
C33 2.6315789473684208e+00
C34 4
C35 5.5555555555555554e+00
C36 3.6043956043956040e+00
C37 4.9450549450549453e+00
C38 6.6341463414634152e+00
C39 1.0975609756097560e+01
C40 5.1034482758620694e+00
C41 7.4712643678160919e+00
C42 2.6302083333333344e+00
C43 9.4791666666666630e-01
C44 5.5494505494505511e+00
C45 3.1153846153846145e+00
C46 4.9402173913043486e+00
C47 2.7065217391304341e+00
C48 1.0951807228915666e+01
C49 6.6566265060240939e+00
C50 7.4602272727272751e+00
C51 4.2613636363636340e+00
C52 1.7506666666666671e+01
C53 7.5133333333333283e+00
C54 5.0499999999999986e+01
C55 4.9999999999999993e+01
C56 5.0499999999999986e+01
C57 50
